8742
1, 22, 31, 18, 3, 17, 21, 23, 30, 29, 16, 44, 34, 35, 36, 39, 40, 37, 38, 5, 6, 4, 25, 12, 51, 11, 52, 13, 14, 47, 26, 27, 28, 46, 48, 24, 15, 43, 33, 10, 9, 8, 41, 19, 45, 32, 49, 20, 50, 42, 7, 2, 